(set-logic QF_NRA)
(set-info :source |Benchmarks generated from hycomp (https://es-static.fbk.eu/tools/hycomp/). BMC instances of non-linear hybrid automata taken from: Alessandro Cimatti, Sergio Mover, Stefano Tonetta, A quantifier-free SMT encoding of non-linear hybrid automata, FMCAD 2012 and Alessandro Cimatti, Sergio Mover, Stefano Tonetta, Quantier-free encoding of invariants for Hybrid Systems, Formal Methods in System Design. This instance solves a BMC problem of depth 3 and uses the encoding obtained with quantifier elimination using redlog encoding. Contacts: Sergio Mover (mover@fbk.eu), Stefano Tonetta (tonettas@fbk.eu), Alessandro Cimatti (cimatti@fbk.eu).|)
(set-info :smt-lib-version 2.0)
(set-info :category "industrial")
(set-info :status unsat)
;; MathSAT API call trace
;; generated on Mon Mar 19 10:44:47 2012
(declare-fun b.bool_atom__AT3 () Bool)
(declare-fun b.y__AT0 () Real)
(declare-fun b.speed_y__AT3 () Real)
(declare-fun b.event_is_timed__AT2 () Bool)
(declare-fun b.counter.0__AT0 () Bool)
(declare-fun b.EVENT.0__AT0 () Bool)
(declare-fun b.counter.3__AT0 () Bool)
(declare-fun b.counter.1__AT0 () Bool)
(declare-fun b.bool_atom__AT1 () Bool)
(declare-fun b.x__AT1 () Real)
(declare-fun b.bool_atom__AT2 () Bool)
(declare-fun b.y__AT2 () Real)
(declare-fun b.time__AT2 () Real)
(declare-fun b.delta__AT2 () Real)
(declare-fun b.x__AT2 () Real)
(declare-fun b.EVENT.0__AT2 () Bool)
(declare-fun b.g__AT0 () Real)
(declare-fun b.speed_y__AT0 () Real)
(declare-fun b.event_is_timed__AT0 () Bool)
(declare-fun b.EVENT.1__AT2 () Bool)
(declare-fun b.y__AT1 () Real)
(declare-fun b.counter.2__AT0 () Bool)
(declare-fun b.counter.0__AT1 () Bool)
(declare-fun b.counter.1__AT1 () Bool)
(declare-fun b.speed_y__AT2 () Real)
(declare-fun b.counter.2__AT1 () Bool)
(declare-fun b.time__AT3 () Real)
(declare-fun b.event_is_timed__AT3 () Bool)
(declare-fun b.counter.3__AT1 () Bool)
(declare-fun b.bool_atom__AT0 () Bool)
(declare-fun b.delta__AT3 () Real)
(declare-fun b.x__AT0 () Real)
(declare-fun b.EVENT.0__AT3 () Bool)
(declare-fun b.EVENT.1__AT0 () Bool)
(declare-fun b.counter.0__AT2 () Bool)
(declare-fun b.delta__AT1 () Real)
(declare-fun b.counter.1__AT2 () Bool)
(declare-fun b.speed_y__AT1 () Real)
(declare-fun b.y__AT3 () Real)
(declare-fun b.time__AT1 () Real)
(declare-fun b.EVENT.0__AT1 () Bool)
(declare-fun b.counter.2__AT2 () Bool)
(declare-fun b.counter.0__AT3 () Bool)
(declare-fun b.time__AT0 () Real)
(declare-fun b.EVENT.1__AT1 () Bool)
(declare-fun b.counter.3__AT2 () Bool)
(declare-fun b.counter.1__AT3 () Bool)
(declare-fun b.delta__AT0 () Real)
(declare-fun b.x__AT3 () Real)
(declare-fun b.counter.2__AT3 () Bool)
(declare-fun b.EVENT.1__AT3 () Bool)
(declare-fun b.event_is_timed__AT1 () Bool)
(declare-fun b.counter.3__AT3 () Bool)
(assert (let ((.def_717 (* b.x__AT3 b.x__AT3)))
(let ((.def_713 (* 5.0 b.delta__AT3)))
(let ((.def_714 (* b.delta__AT3 .def_713)))
(let ((.def_715 (* (- 1.0) .def_714)))
(let ((.def_720 (+ .def_715 .def_717)))
(let ((.def_712 (* b.speed_y__AT3 b.delta__AT3)))
(let ((.def_721 (+ .def_712 .def_720)))
(let ((.def_722 (+ b.y__AT3 .def_721)))
(let ((.def_723 (<= 0.0 .def_722)))
(let ((.def_753 (not .def_723)))
(let ((.def_735 (* (- 10.0) b.delta__AT3)))
(let ((.def_736 (+ b.speed_y__AT3 .def_735)))
(let ((.def_737 (<= 0.0 .def_736)))
(let ((.def_754 (and .def_737 .def_753)))
(let ((.def_746 (+ b.y__AT3 .def_717)))
(let ((.def_751 (<= 0.0 .def_746)))
(let ((.def_748 (<= b.speed_y__AT3 0.0 )))
(let ((.def_752 (or .def_748 .def_751)))
(let ((.def_755 (or .def_752 .def_754)))
(let ((.def_747 (<= .def_746 0.0 )))
(let ((.def_749 (and .def_747 .def_748)))
(let ((.def_741 (<= .def_736 0.0 )))
(let ((.def_742 (not .def_741)))
(let ((.def_739 (= .def_722 0.0 )))
(let ((.def_740 (not .def_739)))
(let ((.def_743 (or .def_740 .def_742)))
(let ((.def_738 (or .def_723 .def_737)))
(let ((.def_744 (and .def_738 .def_743)))
(let ((.def_725 (* 20.0 b.x__AT3)))
(let ((.def_726 (* b.x__AT3 .def_725)))
(let ((.def_603 (* b.speed_y__AT3 b.speed_y__AT3)))
(let ((.def_727 (+ .def_603 .def_726)))
(let ((.def_728 (* 20.0 b.y__AT3)))
(let ((.def_730 (+ .def_728 .def_727)))
(let ((.def_733 (<= .def_730 0.0 )))
(let ((.def_734 (not .def_733)))
(let ((.def_745 (or .def_734 .def_744)))
(let ((.def_750 (or .def_745 .def_749)))
(let ((.def_756 (and .def_750 .def_755)))
(let ((.def_731 (<= 0.0 .def_730)))
(let ((.def_732 (not .def_731)))
(let ((.def_757 (or .def_732 .def_756)))
(let ((.def_710 (<= 0.0 b.delta__AT3)))
(let ((.def_711 (not .def_710)))
(let ((.def_724 (or .def_711 .def_723)))
(let ((.def_758 (and .def_724 .def_757)))
(let ((.def_694 (not b.EVENT.0__AT3)))
(let ((.def_692 (not b.EVENT.1__AT3)))
(let ((.def_707 (and .def_692 .def_694)))
(let ((.def_708 (not .def_707)))
(let ((.def_759 (or .def_708 .def_758)))
(let ((.def_406 (not b.counter.0__AT2)))
(let ((.def_396 (not b.counter.1__AT2)))
(let ((.def_703 (and .def_396 .def_406)))
(let ((.def_401 (not b.counter.2__AT2)))
(let ((.def_704 (and .def_401 .def_703)))
(let ((.def_697 (* (- 1.0) b.x__AT3)))
(let ((.def_698 (* b.x__AT3 .def_697)))
(let ((.def_699 (<= .def_698 b.y__AT3)))
(let ((.def_57 (<= b.g__AT0 10.0 )))
(let ((.def_56 (<= 8.0 b.g__AT0)))
(let ((.def_58 (and .def_56 .def_57)))
(let ((.def_700 (and .def_58 .def_699)))
(let ((.def_695 (or .def_692 .def_694)))
(let ((.def_6 (not b.counter.0__AT3)))
(let ((.def_4 (not b.counter.1__AT3)))
(let ((.def_685 (or .def_4 .def_6)))
(let ((.def_689 (or b.counter.3__AT3 .def_685)))
(let ((.def_686 (or b.counter.2__AT3 .def_685)))
(let ((.def_9 (not b.counter.2__AT3)))
(let ((.def_684 (or .def_6 .def_9)))
(let ((.def_687 (and .def_684 .def_686)))
(let ((.def_622 (not b.counter.3__AT3)))
(let ((.def_688 (or .def_622 .def_687)))
(let ((.def_690 (and .def_688 .def_689)))
(let ((.def_696 (and .def_690 .def_695)))
(let ((.def_701 (and .def_696 .def_700)))
(let ((.def_503 (<= 0.0 b.delta__AT2)))
(let ((.def_487 (not b.EVENT.0__AT2)))
(let ((.def_485 (not b.EVENT.1__AT2)))
(let ((.def_500 (and .def_485 .def_487)))
(let ((.def_501 (not .def_500)))
(let ((.def_680 (or .def_501 .def_503)))
(let ((.def_681 (or b.EVENT.1__AT2 .def_680)))
(let ((.def_590 (= b.bool_atom__AT2 b.bool_atom__AT3)))
(let ((.def_586 (= b.counter.0__AT3 b.counter.0__AT2)))
(let ((.def_584 (= b.counter.1__AT3 b.counter.1__AT2)))
(let ((.def_582 (= b.counter.2__AT3 b.counter.2__AT2)))
(let ((.def_581 (= b.counter.3__AT2 b.counter.3__AT3)))
(let ((.def_583 (and .def_581 .def_582)))
(let ((.def_585 (and .def_583 .def_584)))
(let ((.def_587 (and .def_585 .def_586)))
(let ((.def_676 (and .def_587 .def_590)))
(let ((.def_677 (or .def_501 .def_676)))
(let ((.def_678 (or b.EVENT.1__AT2 .def_677)))
(let ((.def_232 (* (- 1.0) b.g__AT0)))
(let ((.def_664 (* .def_232 b.delta__AT2)))
(let ((.def_665 (* (- 1.0) b.speed_y__AT3)))
(let ((.def_668 (+ .def_665 .def_664)))
(let ((.def_669 (+ b.speed_y__AT2 .def_668)))
(let ((.def_670 (= .def_669 0.0 )))
(let ((.def_654 (* b.delta__AT2 b.delta__AT2)))
(let ((.def_235 (* (/ 1 2) .def_232)))
(let ((.def_655 (* .def_235 .def_654)))
(let ((.def_656 (* (- 1.0) b.y__AT3)))
(let ((.def_660 (+ .def_656 .def_655)))
(let ((.def_505 (* b.speed_y__AT2 b.delta__AT2)))
(let ((.def_661 (+ .def_505 .def_660)))
(let ((.def_662 (+ b.y__AT2 .def_661)))
(let ((.def_663 (= .def_662 0.0 )))
(let ((.def_671 (and .def_663 .def_670)))
(let ((.def_572 (= b.x__AT2 b.x__AT3)))
(let ((.def_672 (and .def_572 .def_671)))
(let ((.def_673 (or .def_501 .def_672)))
(let ((.def_575 (= b.y__AT2 b.y__AT3)))
(let ((.def_649 (and .def_572 .def_575)))
(let ((.def_578 (= b.speed_y__AT2 b.speed_y__AT3)))
(let ((.def_650 (and .def_578 .def_649)))
(let ((.def_646 (= b.delta__AT2 0.0 )))
(let ((.def_647 (and .def_500 .def_646)))
(let ((.def_648 (not .def_647)))
(let ((.def_651 (or .def_648 .def_650)))
(let ((.def_652 (or b.EVENT.1__AT2 .def_651)))
(let ((.def_639 (and .def_578 .def_587)))
(let ((.def_640 (or b.bool_atom__AT2 .def_639)))
(let ((.def_614 (or .def_6 b.counter.0__AT2)))
(let ((.def_613 (or b.counter.0__AT3 .def_406)))
(let ((.def_615 (and .def_613 .def_614)))
(let ((.def_616 (and .def_4 .def_615)))
(let ((.def_617 (or b.counter.1__AT2 .def_616)))
(let ((.def_612 (or b.counter.1__AT3 .def_396)))
(let ((.def_618 (and .def_612 .def_617)))
(let ((.def_630 (and .def_9 .def_618)))
(let ((.def_631 (or b.counter.2__AT2 .def_630)))
(let ((.def_625 (and .def_4 .def_406)))
(let ((.def_626 (or b.counter.1__AT2 .def_625)))
(let ((.def_627 (and .def_612 .def_626)))
(let ((.def_628 (and b.counter.2__AT3 .def_627)))
(let ((.def_629 (or .def_401 .def_628)))
(let ((.def_632 (and .def_629 .def_631)))
(let ((.def_633 (and b.counter.3__AT3 .def_632)))
(let ((.def_634 (or b.counter.3__AT2 .def_633)))
(let ((.def_619 (and b.counter.2__AT3 .def_618)))
(let ((.def_620 (or b.counter.2__AT2 .def_619)))
(let ((.def_608 (or b.counter.1__AT3 b.counter.1__AT2)))
(let ((.def_606 (and .def_4 b.counter.0__AT3)))
(let ((.def_607 (or .def_396 .def_606)))
(let ((.def_609 (and .def_607 .def_608)))
(let ((.def_610 (and .def_9 .def_609)))
(let ((.def_611 (or .def_401 .def_610)))
(let ((.def_621 (and .def_611 .def_620)))
(let ((.def_623 (and .def_621 .def_622)))
(let ((.def_415 (not b.counter.3__AT2)))
(let ((.def_624 (or .def_415 .def_623)))
(let ((.def_635 (and .def_624 .def_634)))
(let ((.def_393 (* b.speed_y__AT2 b.speed_y__AT2)))
(let ((.def_604 (= .def_393 .def_603)))
(let ((.def_601 (+ b.speed_y__AT2 b.speed_y__AT3)))
(let ((.def_602 (= .def_601 0.0 )))
(let ((.def_605 (and .def_602 .def_604)))
(let ((.def_636 (and .def_605 .def_635)))
(let ((.def_600 (not b.bool_atom__AT2)))
(let ((.def_637 (or .def_600 .def_636)))
(let ((.def_596 (<= 0.0 b.speed_y__AT2)))
(let ((.def_597 (not .def_596)))
(let ((.def_490 (* (- 1.0) b.x__AT2)))
(let ((.def_491 (* b.x__AT2 .def_490)))
(let ((.def_595 (= b.y__AT2 .def_491)))
(let ((.def_598 (and .def_595 .def_597)))
(let ((.def_599 (= b.bool_atom__AT2 .def_598)))
(let ((.def_638 (and .def_599 .def_637)))
(let ((.def_641 (and .def_638 .def_640)))
(let ((.def_642 (and .def_572 .def_641)))
(let ((.def_643 (and .def_575 .def_642)))
(let ((.def_644 (or .def_500 .def_643)))
(let ((.def_645 (or b.EVENT.1__AT2 .def_644)))
(let ((.def_653 (and .def_645 .def_652)))
(let ((.def_674 (and .def_653 .def_673)))
(let ((.def_559 (= b.time__AT2 b.time__AT3)))
(let ((.def_573 (and .def_559 .def_572)))
(let ((.def_576 (and .def_573 .def_575)))
(let ((.def_579 (and .def_576 .def_578)))
(let ((.def_588 (and .def_579 .def_587)))
(let ((.def_591 (and .def_588 .def_590)))
(let ((.def_592 (or .def_485 .def_591)))
(let ((.def_562 (* (- 1.0) b.time__AT3)))
(let ((.def_565 (+ b.delta__AT2 .def_562)))
(let ((.def_566 (+ b.time__AT2 .def_565)))
(let ((.def_567 (= .def_566 0.0 )))
(let ((.def_568 (or .def_501 .def_567)))
(let ((.def_569 (or b.EVENT.1__AT2 .def_568)))
(let ((.def_560 (or .def_500 .def_559)))
(let ((.def_561 (or b.EVENT.1__AT2 .def_560)))
(let ((.def_570 (and .def_561 .def_569)))
(let ((.def_593 (and .def_570 .def_592)))
(let ((.def_556 (= .def_501 b.event_is_timed__AT3)))
(let ((.def_554 (= b.event_is_timed__AT2 .def_500)))
(let ((.def_557 (and .def_554 .def_556)))
(let ((.def_594 (and .def_557 .def_593)))
(let ((.def_675 (and .def_594 .def_674)))
(let ((.def_679 (and .def_675 .def_678)))
(let ((.def_682 (and .def_679 .def_681)))
(let ((.def_683 (and .def_485 .def_682)))
(let ((.def_702 (and .def_683 .def_701)))
(let ((.def_705 (and .def_702 .def_704)))
(let ((.def_510 (* b.x__AT2 b.x__AT2)))
(let ((.def_506 (* 5.0 b.delta__AT2)))
(let ((.def_507 (* b.delta__AT2 .def_506)))
(let ((.def_508 (* (- 1.0) .def_507)))
(let ((.def_513 (+ .def_508 .def_510)))
(let ((.def_514 (+ .def_505 .def_513)))
(let ((.def_515 (+ b.y__AT2 .def_514)))
(let ((.def_516 (<= 0.0 .def_515)))
(let ((.def_546 (not .def_516)))
(let ((.def_528 (* (- 10.0) b.delta__AT2)))
(let ((.def_529 (+ b.speed_y__AT2 .def_528)))
(let ((.def_530 (<= 0.0 .def_529)))
(let ((.def_547 (and .def_530 .def_546)))
(let ((.def_539 (+ b.y__AT2 .def_510)))
(let ((.def_544 (<= 0.0 .def_539)))
(let ((.def_541 (<= b.speed_y__AT2 0.0 )))
(let ((.def_545 (or .def_541 .def_544)))
(let ((.def_548 (or .def_545 .def_547)))
(let ((.def_540 (<= .def_539 0.0 )))
(let ((.def_542 (and .def_540 .def_541)))
(let ((.def_534 (<= .def_529 0.0 )))
(let ((.def_535 (not .def_534)))
(let ((.def_532 (= .def_515 0.0 )))
(let ((.def_533 (not .def_532)))
(let ((.def_536 (or .def_533 .def_535)))
(let ((.def_531 (or .def_516 .def_530)))
(let ((.def_537 (and .def_531 .def_536)))
(let ((.def_518 (* 20.0 b.x__AT2)))
(let ((.def_519 (* b.x__AT2 .def_518)))
(let ((.def_520 (+ .def_393 .def_519)))
(let ((.def_521 (* 20.0 b.y__AT2)))
(let ((.def_523 (+ .def_521 .def_520)))
(let ((.def_526 (<= .def_523 0.0 )))
(let ((.def_527 (not .def_526)))
(let ((.def_538 (or .def_527 .def_537)))
(let ((.def_543 (or .def_538 .def_542)))
(let ((.def_549 (and .def_543 .def_548)))
(let ((.def_524 (<= 0.0 .def_523)))
(let ((.def_525 (not .def_524)))
(let ((.def_550 (or .def_525 .def_549)))
(let ((.def_504 (not .def_503)))
(let ((.def_517 (or .def_504 .def_516)))
(let ((.def_551 (and .def_517 .def_550)))
(let ((.def_552 (or .def_501 .def_551)))
(let ((.def_191 (not b.counter.0__AT1)))
(let ((.def_181 (not b.counter.1__AT1)))
(let ((.def_496 (and .def_181 .def_191)))
(let ((.def_186 (not b.counter.2__AT1)))
(let ((.def_497 (and .def_186 .def_496)))
(let ((.def_492 (<= .def_491 b.y__AT2)))
(let ((.def_493 (and .def_58 .def_492)))
(let ((.def_488 (or .def_485 .def_487)))
(let ((.def_478 (or .def_396 .def_406)))
(let ((.def_482 (or b.counter.3__AT2 .def_478)))
(let ((.def_479 (or b.counter.2__AT2 .def_478)))
(let ((.def_477 (or .def_401 .def_406)))
(let ((.def_480 (and .def_477 .def_479)))
(let ((.def_481 (or .def_415 .def_480)))
(let ((.def_483 (and .def_481 .def_482)))
(let ((.def_489 (and .def_483 .def_488)))
(let ((.def_494 (and .def_489 .def_493)))
(let ((.def_290 (<= 0.0 b.delta__AT1)))
(let ((.def_276 (not b.EVENT.0__AT1)))
(let ((.def_274 (not b.EVENT.1__AT1)))
(let ((.def_287 (and .def_274 .def_276)))
(let ((.def_288 (not .def_287)))
(let ((.def_473 (or .def_288 .def_290)))
(let ((.def_474 (or b.EVENT.1__AT1 .def_473)))
(let ((.def_380 (= b.bool_atom__AT1 b.bool_atom__AT2)))
(let ((.def_376 (= b.counter.0__AT1 b.counter.0__AT2)))
(let ((.def_373 (= b.counter.1__AT1 b.counter.1__AT2)))
(let ((.def_370 (= b.counter.2__AT1 b.counter.2__AT2)))
(let ((.def_368 (= b.counter.3__AT1 b.counter.3__AT2)))
(let ((.def_371 (and .def_368 .def_370)))
(let ((.def_374 (and .def_371 .def_373)))
(let ((.def_377 (and .def_374 .def_376)))
(let ((.def_469 (and .def_377 .def_380)))
(let ((.def_470 (or .def_288 .def_469)))
(let ((.def_471 (or b.EVENT.1__AT1 .def_470)))
(let ((.def_457 (* .def_232 b.delta__AT1)))
(let ((.def_458 (* (- 1.0) b.speed_y__AT2)))
(let ((.def_461 (+ .def_458 .def_457)))
(let ((.def_462 (+ b.speed_y__AT1 .def_461)))
(let ((.def_463 (= .def_462 0.0 )))
(let ((.def_447 (* b.delta__AT1 b.delta__AT1)))
(let ((.def_448 (* .def_235 .def_447)))
(let ((.def_449 (* (- 1.0) b.y__AT2)))
(let ((.def_453 (+ .def_449 .def_448)))
(let ((.def_292 (* b.speed_y__AT1 b.delta__AT1)))
(let ((.def_454 (+ .def_292 .def_453)))
(let ((.def_455 (+ b.y__AT1 .def_454)))
(let ((.def_456 (= .def_455 0.0 )))
(let ((.def_464 (and .def_456 .def_463)))
(let ((.def_359 (= b.x__AT1 b.x__AT2)))
(let ((.def_465 (and .def_359 .def_464)))
(let ((.def_466 (or .def_288 .def_465)))
(let ((.def_362 (= b.y__AT1 b.y__AT2)))
(let ((.def_442 (and .def_359 .def_362)))
(let ((.def_365 (= b.speed_y__AT1 b.speed_y__AT2)))
(let ((.def_443 (and .def_365 .def_442)))
(let ((.def_439 (= b.delta__AT1 0.0 )))
(let ((.def_440 (and .def_287 .def_439)))
(let ((.def_441 (not .def_440)))
(let ((.def_444 (or .def_441 .def_443)))
(let ((.def_445 (or b.EVENT.1__AT1 .def_444)))
(let ((.def_432 (and .def_365 .def_377)))
(let ((.def_433 (or b.bool_atom__AT1 .def_432)))
(let ((.def_407 (or b.counter.0__AT1 .def_406)))
(let ((.def_405 (or .def_191 b.counter.0__AT2)))
(let ((.def_408 (and .def_405 .def_407)))
(let ((.def_409 (and .def_396 .def_408)))
(let ((.def_410 (or b.counter.1__AT1 .def_409)))
(let ((.def_404 (or .def_181 b.counter.1__AT2)))
(let ((.def_411 (and .def_404 .def_410)))
(let ((.def_423 (and .def_401 .def_411)))
(let ((.def_424 (or b.counter.2__AT1 .def_423)))
(let ((.def_418 (and .def_191 .def_396)))
(let ((.def_419 (or b.counter.1__AT1 .def_418)))
(let ((.def_420 (and .def_404 .def_419)))
(let ((.def_421 (and b.counter.2__AT2 .def_420)))
(let ((.def_422 (or .def_186 .def_421)))
(let ((.def_425 (and .def_422 .def_424)))
(let ((.def_426 (and b.counter.3__AT2 .def_425)))
(let ((.def_427 (or b.counter.3__AT1 .def_426)))
(let ((.def_412 (and b.counter.2__AT2 .def_411)))
(let ((.def_413 (or b.counter.2__AT1 .def_412)))
(let ((.def_399 (or b.counter.1__AT1 b.counter.1__AT2)))
(let ((.def_397 (and b.counter.0__AT2 .def_396)))
(let ((.def_398 (or .def_181 .def_397)))
(let ((.def_400 (and .def_398 .def_399)))
(let ((.def_402 (and .def_400 .def_401)))
(let ((.def_403 (or .def_186 .def_402)))
(let ((.def_414 (and .def_403 .def_413)))
(let ((.def_416 (and .def_414 .def_415)))
(let ((.def_200 (not b.counter.3__AT1)))
(let ((.def_417 (or .def_200 .def_416)))
(let ((.def_428 (and .def_417 .def_427)))
(let ((.def_178 (* b.speed_y__AT1 b.speed_y__AT1)))
(let ((.def_394 (= .def_178 .def_393)))
(let ((.def_391 (+ b.speed_y__AT1 b.speed_y__AT2)))
(let ((.def_392 (= .def_391 0.0 )))
(let ((.def_395 (and .def_392 .def_394)))
(let ((.def_429 (and .def_395 .def_428)))
(let ((.def_390 (not b.bool_atom__AT1)))
(let ((.def_430 (or .def_390 .def_429)))
(let ((.def_386 (<= 0.0 b.speed_y__AT1)))
(let ((.def_387 (not .def_386)))
(let ((.def_279 (* (- 1.0) b.x__AT1)))
(let ((.def_280 (* b.x__AT1 .def_279)))
(let ((.def_385 (= b.y__AT1 .def_280)))
(let ((.def_388 (and .def_385 .def_387)))
(let ((.def_389 (= b.bool_atom__AT1 .def_388)))
(let ((.def_431 (and .def_389 .def_430)))
(let ((.def_434 (and .def_431 .def_433)))
(let ((.def_435 (and .def_359 .def_434)))
(let ((.def_436 (and .def_362 .def_435)))
(let ((.def_437 (or .def_287 .def_436)))
(let ((.def_438 (or b.EVENT.1__AT1 .def_437)))
(let ((.def_446 (and .def_438 .def_445)))
(let ((.def_467 (and .def_446 .def_466)))
(let ((.def_346 (= b.time__AT1 b.time__AT2)))
(let ((.def_360 (and .def_346 .def_359)))
(let ((.def_363 (and .def_360 .def_362)))
(let ((.def_366 (and .def_363 .def_365)))
(let ((.def_378 (and .def_366 .def_377)))
(let ((.def_381 (and .def_378 .def_380)))
(let ((.def_382 (or .def_274 .def_381)))
(let ((.def_349 (* (- 1.0) b.time__AT2)))
(let ((.def_352 (+ b.delta__AT1 .def_349)))
(let ((.def_353 (+ b.time__AT1 .def_352)))
(let ((.def_354 (= .def_353 0.0 )))
(let ((.def_355 (or .def_288 .def_354)))
(let ((.def_356 (or b.EVENT.1__AT1 .def_355)))
(let ((.def_347 (or .def_287 .def_346)))
(let ((.def_348 (or b.EVENT.1__AT1 .def_347)))
(let ((.def_357 (and .def_348 .def_356)))
(let ((.def_383 (and .def_357 .def_382)))
(let ((.def_343 (= .def_288 b.event_is_timed__AT2)))
(let ((.def_341 (= b.event_is_timed__AT1 .def_287)))
(let ((.def_344 (and .def_341 .def_343)))
(let ((.def_384 (and .def_344 .def_383)))
(let ((.def_468 (and .def_384 .def_467)))
(let ((.def_472 (and .def_468 .def_471)))
(let ((.def_475 (and .def_472 .def_474)))
(let ((.def_476 (and .def_274 .def_475)))
(let ((.def_495 (and .def_476 .def_494)))
(let ((.def_498 (and .def_495 .def_497)))
(let ((.def_297 (* b.x__AT1 b.x__AT1)))
(let ((.def_293 (* 5.0 b.delta__AT1)))
(let ((.def_294 (* b.delta__AT1 .def_293)))
(let ((.def_295 (* (- 1.0) .def_294)))
(let ((.def_300 (+ .def_295 .def_297)))
(let ((.def_301 (+ .def_292 .def_300)))
(let ((.def_302 (+ b.y__AT1 .def_301)))
(let ((.def_303 (<= 0.0 .def_302)))
(let ((.def_333 (not .def_303)))
(let ((.def_315 (* (- 10.0) b.delta__AT1)))
(let ((.def_316 (+ b.speed_y__AT1 .def_315)))
(let ((.def_317 (<= 0.0 .def_316)))
(let ((.def_334 (and .def_317 .def_333)))
(let ((.def_326 (+ b.y__AT1 .def_297)))
(let ((.def_331 (<= 0.0 .def_326)))
(let ((.def_328 (<= b.speed_y__AT1 0.0 )))
(let ((.def_332 (or .def_328 .def_331)))
(let ((.def_335 (or .def_332 .def_334)))
(let ((.def_327 (<= .def_326 0.0 )))
(let ((.def_329 (and .def_327 .def_328)))
(let ((.def_321 (<= .def_316 0.0 )))
(let ((.def_322 (not .def_321)))
(let ((.def_319 (= .def_302 0.0 )))
(let ((.def_320 (not .def_319)))
(let ((.def_323 (or .def_320 .def_322)))
(let ((.def_318 (or .def_303 .def_317)))
(let ((.def_324 (and .def_318 .def_323)))
(let ((.def_305 (* 20.0 b.x__AT1)))
(let ((.def_306 (* b.x__AT1 .def_305)))
(let ((.def_307 (+ .def_178 .def_306)))
(let ((.def_308 (* 20.0 b.y__AT1)))
(let ((.def_310 (+ .def_308 .def_307)))
(let ((.def_313 (<= .def_310 0.0 )))
(let ((.def_314 (not .def_313)))
(let ((.def_325 (or .def_314 .def_324)))
(let ((.def_330 (or .def_325 .def_329)))
(let ((.def_336 (and .def_330 .def_335)))
(let ((.def_311 (<= 0.0 .def_310)))
(let ((.def_312 (not .def_311)))
(let ((.def_337 (or .def_312 .def_336)))
(let ((.def_291 (not .def_290)))
(let ((.def_304 (or .def_291 .def_303)))
(let ((.def_338 (and .def_304 .def_337)))
(let ((.def_339 (or .def_288 .def_338)))
(let ((.def_281 (<= .def_280 b.y__AT1)))
(let ((.def_282 (and .def_58 .def_281)))
(let ((.def_277 (or .def_274 .def_276)))
(let ((.def_267 (or .def_181 .def_191)))
(let ((.def_271 (or b.counter.3__AT1 .def_267)))
(let ((.def_268 (or b.counter.2__AT1 .def_267)))
(let ((.def_266 (or .def_186 .def_191)))
(let ((.def_269 (and .def_266 .def_268)))
(let ((.def_270 (or .def_200 .def_269)))
(let ((.def_272 (and .def_270 .def_271)))
(let ((.def_278 (and .def_272 .def_277)))
(let ((.def_283 (and .def_278 .def_282)))
(let ((.def_66 (<= 0.0 b.delta__AT0)))
(let ((.def_46 (not b.EVENT.0__AT0)))
(let ((.def_44 (not b.EVENT.1__AT0)))
(let ((.def_63 (and .def_44 .def_46)))
(let ((.def_64 (not .def_63)))
(let ((.def_262 (or .def_64 .def_66)))
(let ((.def_263 (or b.EVENT.1__AT0 .def_262)))
(let ((.def_165 (= b.bool_atom__AT0 b.bool_atom__AT1)))
(let ((.def_160 (= b.counter.0__AT0 b.counter.0__AT1)))
(let ((.def_157 (= b.counter.1__AT0 b.counter.1__AT1)))
(let ((.def_154 (= b.counter.2__AT0 b.counter.2__AT1)))
(let ((.def_152 (= b.counter.3__AT0 b.counter.3__AT1)))
(let ((.def_155 (and .def_152 .def_154)))
(let ((.def_158 (and .def_155 .def_157)))
(let ((.def_161 (and .def_158 .def_160)))
(let ((.def_258 (and .def_161 .def_165)))
(let ((.def_259 (or .def_64 .def_258)))
(let ((.def_260 (or b.EVENT.1__AT0 .def_259)))
(let ((.def_246 (* b.delta__AT0 .def_232)))
(let ((.def_247 (* (- 1.0) b.speed_y__AT1)))
(let ((.def_250 (+ .def_247 .def_246)))
(let ((.def_251 (+ b.speed_y__AT0 .def_250)))
(let ((.def_252 (= .def_251 0.0 )))
(let ((.def_236 (* b.delta__AT0 b.delta__AT0)))
(let ((.def_237 (* .def_235 .def_236)))
(let ((.def_239 (* (- 1.0) b.y__AT1)))
(let ((.def_242 (+ .def_239 .def_237)))
(let ((.def_69 (* b.delta__AT0 b.speed_y__AT0)))
(let ((.def_243 (+ .def_69 .def_242)))
(let ((.def_244 (+ b.y__AT0 .def_243)))
(let ((.def_245 (= .def_244 0.0 )))
(let ((.def_253 (and .def_245 .def_252)))
(let ((.def_143 (= b.x__AT0 b.x__AT1)))
(let ((.def_254 (and .def_143 .def_253)))
(let ((.def_255 (or .def_64 .def_254)))
(let ((.def_146 (= b.y__AT0 b.y__AT1)))
(let ((.def_227 (and .def_143 .def_146)))
(let ((.def_149 (= b.speed_y__AT0 b.speed_y__AT1)))
(let ((.def_228 (and .def_149 .def_227)))
(let ((.def_224 (= b.delta__AT0 0.0 )))
(let ((.def_225 (and .def_63 .def_224)))
(let ((.def_226 (not .def_225)))
(let ((.def_229 (or .def_226 .def_228)))
(let ((.def_230 (or b.EVENT.1__AT0 .def_229)))
(let ((.def_217 (and .def_149 .def_161)))
(let ((.def_218 (or b.bool_atom__AT0 .def_217)))
(let ((.def_192 (or b.counter.0__AT0 .def_191)))
(let ((.def_27 (not b.counter.0__AT0)))
(let ((.def_190 (or .def_27 b.counter.0__AT1)))
(let ((.def_193 (and .def_190 .def_192)))
(let ((.def_194 (and .def_181 .def_193)))
(let ((.def_195 (or b.counter.1__AT0 .def_194)))
(let ((.def_25 (not b.counter.1__AT0)))
(let ((.def_189 (or .def_25 b.counter.1__AT1)))
(let ((.def_196 (and .def_189 .def_195)))
(let ((.def_208 (and .def_186 .def_196)))
(let ((.def_209 (or b.counter.2__AT0 .def_208)))
(let ((.def_203 (and .def_27 .def_181)))
(let ((.def_204 (or b.counter.1__AT0 .def_203)))
(let ((.def_205 (and .def_189 .def_204)))
(let ((.def_206 (and b.counter.2__AT1 .def_205)))
(let ((.def_30 (not b.counter.2__AT0)))
(let ((.def_207 (or .def_30 .def_206)))
(let ((.def_210 (and .def_207 .def_209)))
(let ((.def_211 (and b.counter.3__AT1 .def_210)))
(let ((.def_212 (or b.counter.3__AT0 .def_211)))
(let ((.def_197 (and b.counter.2__AT1 .def_196)))
(let ((.def_198 (or b.counter.2__AT0 .def_197)))
(let ((.def_184 (or b.counter.1__AT0 b.counter.1__AT1)))
(let ((.def_182 (and b.counter.0__AT1 .def_181)))
(let ((.def_183 (or .def_25 .def_182)))
(let ((.def_185 (and .def_183 .def_184)))
(let ((.def_187 (and .def_185 .def_186)))
(let ((.def_188 (or .def_30 .def_187)))
(let ((.def_199 (and .def_188 .def_198)))
(let ((.def_201 (and .def_199 .def_200)))
(let ((.def_33 (not b.counter.3__AT0)))
(let ((.def_202 (or .def_33 .def_201)))
(let ((.def_213 (and .def_202 .def_212)))
(let ((.def_83 (* b.speed_y__AT0 b.speed_y__AT0)))
(let ((.def_179 (= .def_83 .def_178)))
(let ((.def_176 (+ b.speed_y__AT0 b.speed_y__AT1)))
(let ((.def_177 (= .def_176 0.0 )))
(let ((.def_180 (and .def_177 .def_179)))
(let ((.def_214 (and .def_180 .def_213)))
(let ((.def_175 (not b.bool_atom__AT0)))
(let ((.def_215 (or .def_175 .def_214)))
(let ((.def_171 (<= 0.0 b.speed_y__AT0)))
(let ((.def_172 (not .def_171)))
(let ((.def_51 (* (- 1.0) b.x__AT0)))
(let ((.def_52 (* b.x__AT0 .def_51)))
(let ((.def_170 (= b.y__AT0 .def_52)))
(let ((.def_173 (and .def_170 .def_172)))
(let ((.def_174 (= b.bool_atom__AT0 .def_173)))
(let ((.def_216 (and .def_174 .def_215)))
(let ((.def_219 (and .def_216 .def_218)))
(let ((.def_220 (and .def_143 .def_219)))
(let ((.def_221 (and .def_146 .def_220)))
(let ((.def_222 (or .def_63 .def_221)))
(let ((.def_223 (or b.EVENT.1__AT0 .def_222)))
(let ((.def_231 (and .def_223 .def_230)))
(let ((.def_256 (and .def_231 .def_255)))
(let ((.def_130 (= b.time__AT0 b.time__AT1)))
(let ((.def_144 (and .def_130 .def_143)))
(let ((.def_147 (and .def_144 .def_146)))
(let ((.def_150 (and .def_147 .def_149)))
(let ((.def_162 (and .def_150 .def_161)))
(let ((.def_166 (and .def_162 .def_165)))
(let ((.def_167 (or .def_44 .def_166)))
(let ((.def_133 (* (- 1.0) b.time__AT1)))
(let ((.def_136 (+ b.delta__AT0 .def_133)))
(let ((.def_137 (+ b.time__AT0 .def_136)))
(let ((.def_138 (= .def_137 0.0 )))
(let ((.def_139 (or .def_64 .def_138)))
(let ((.def_140 (or b.EVENT.1__AT0 .def_139)))
(let ((.def_131 (or .def_63 .def_130)))
(let ((.def_132 (or b.EVENT.1__AT0 .def_131)))
(let ((.def_141 (and .def_132 .def_140)))
(let ((.def_168 (and .def_141 .def_167)))
(let ((.def_127 (= .def_64 b.event_is_timed__AT1)))
(let ((.def_125 (= b.event_is_timed__AT0 .def_63)))
(let ((.def_128 (and .def_125 .def_127)))
(let ((.def_169 (and .def_128 .def_168)))
(let ((.def_257 (and .def_169 .def_256)))
(let ((.def_261 (and .def_257 .def_260)))
(let ((.def_264 (and .def_261 .def_263)))
(let ((.def_265 (and .def_44 .def_264)))
(let ((.def_284 (and .def_265 .def_283)))
(let ((.def_28 (and .def_25 .def_27)))
(let ((.def_31 (and .def_28 .def_30)))
(let ((.def_285 (and .def_31 .def_284)))
(let ((.def_75 (* b.x__AT0 b.x__AT0)))
(let ((.def_71 (* 5.0 b.delta__AT0)))
(let ((.def_72 (* b.delta__AT0 .def_71)))
(let ((.def_73 (* (- 1.0) .def_72)))
(let ((.def_78 (+ .def_73 .def_75)))
(let ((.def_79 (+ .def_69 .def_78)))
(let ((.def_80 (+ b.y__AT0 .def_79)))
(let ((.def_81 (<= 0.0 .def_80)))
(let ((.def_117 (not .def_81)))
(let ((.def_98 (* (- 1.0) b.speed_y__AT0)))
(let ((.def_99 (* 10.0 b.delta__AT0)))
(let ((.def_100 (+ .def_99 .def_98)))
(let ((.def_101 (<= .def_100 0.0 )))
(let ((.def_118 (and .def_101 .def_117)))
(let ((.def_110 (+ b.y__AT0 .def_75)))
(let ((.def_115 (<= 0.0 .def_110)))
(let ((.def_112 (<= b.speed_y__AT0 0.0 )))
(let ((.def_116 (or .def_112 .def_115)))
(let ((.def_119 (or .def_116 .def_118)))
(let ((.def_111 (<= .def_110 0.0 )))
(let ((.def_113 (and .def_111 .def_112)))
(let ((.def_105 (<= 0.0 .def_100)))
(let ((.def_106 (not .def_105)))
(let ((.def_103 (= .def_80 0.0 )))
(let ((.def_104 (not .def_103)))
(let ((.def_107 (or .def_104 .def_106)))
(let ((.def_102 (or .def_81 .def_101)))
(let ((.def_108 (and .def_102 .def_107)))
(let ((.def_85 (* 20.0 b.x__AT0)))
(let ((.def_86 (* b.x__AT0 .def_85)))
(let ((.def_87 (+ .def_83 .def_86)))
(let ((.def_88 (* 20.0 b.y__AT0)))
(let ((.def_90 (+ .def_88 .def_87)))
(let ((.def_93 (<= .def_90 0.0 )))
(let ((.def_94 (not .def_93)))
(let ((.def_109 (or .def_94 .def_108)))
(let ((.def_114 (or .def_109 .def_113)))
(let ((.def_120 (and .def_114 .def_119)))
(let ((.def_91 (<= 0.0 .def_90)))
(let ((.def_92 (not .def_91)))
(let ((.def_121 (or .def_92 .def_120)))
(let ((.def_67 (not .def_66)))
(let ((.def_82 (or .def_67 .def_81)))
(let ((.def_122 (and .def_82 .def_121)))
(let ((.def_123 (or .def_64 .def_122)))
(let ((.def_53 (<= .def_52 b.y__AT0)))
(let ((.def_59 (and .def_53 .def_58)))
(let ((.def_47 (or .def_44 .def_46)))
(let ((.def_37 (or .def_25 .def_27)))
(let ((.def_41 (or b.counter.3__AT0 .def_37)))
(let ((.def_38 (or b.counter.2__AT0 .def_37)))
(let ((.def_36 (or .def_27 .def_30)))
(let ((.def_39 (and .def_36 .def_38)))
(let ((.def_40 (or .def_33 .def_39)))
(let ((.def_42 (and .def_40 .def_41)))
(let ((.def_48 (and .def_42 .def_47)))
(let ((.def_60 (and .def_48 .def_59)))
(let ((.def_34 (and .def_31 .def_33)))
(let ((.def_22 (= b.y__AT0 10.0 )))
(let ((.def_18 (= b.x__AT0 0.0 )))
(let ((.def_14 (= b.time__AT0 0.0 )))
(let ((.def_16 (and .def_14 b.event_is_timed__AT0)))
(let ((.def_19 (and .def_16 .def_18)))
(let ((.def_23 (and .def_19 .def_22)))
(let ((.def_35 (and .def_23 .def_34)))
(let ((.def_61 (and .def_35 .def_60)))
(let ((.def_7 (and .def_4 .def_6)))
(let ((.def_10 (and .def_7 .def_9)))
(let ((.def_11 (not .def_10)))
(let ((.def_62 (and .def_11 .def_61)))
(let ((.def_124 (and .def_62 .def_123)))
(let ((.def_286 (and .def_124 .def_285)))
(let ((.def_340 (and .def_286 .def_339)))
(let ((.def_499 (and .def_340 .def_498)))
(let ((.def_553 (and .def_499 .def_552)))
(let ((.def_706 (and .def_553 .def_705)))
(let ((.def_760 (and .def_706 .def_759)))
.def_760)))))))))))))))))))))))))))))))))))))))))))))))))))))))))))))))))))))))))))))))))))))))))))))))))))))))))))))))))))))))))))))))))))))))))))))))))))))))))))))))))))))))))))))))))))))))))))))))))))))))))))))))))))))))))))))))))))))))))))))))))))))))))))))))))))))))))))))))))))))))))))))))))))))))))))))))))))))))))))))))))))))))))))))))))))))))))))))))))))))))))))))))))))))))))))))))))))))))))))))))))))))))))))))))))))))))))))))))))))))))))))))))))))))))))))))))))))))))))))))))))))))))))))))))))))))))))))))))))))))))))))))))))))))))))))))))))))))))))))))))))))))))))))))))))))))))))))))))))))))))))))))))))))))))))))))))))))))))))))))))))))))))))))))))))
(check-sat)
(exit)
